scr/List_Schedule.lp
\ENCODING=ISO-8859-1
\Problem name: 

Minimize
 obj: - 10 t0 - 10 t1 - 10 t2 - 10 t3 - 10 t4 - 10 t5 - 10 t6 - 10 t7 - 10 t8
      - 10 t9 - 10 t10 - 10 t11 - 10 t12 - 10 t13 - 10 t14 - 10 t15 - 10 t16
      - 10 t17 - 10 t18 - 10 t19 - 10 t20 - 10 t21 - 10 t22 - 10 t23 - 10 t24
      - 10 t25 - 10 t26 - 10 t27 - 10 t28 - 10 t29 - 10 t30 - 10 t31 - 10 t32
      - 10 t33 - 10 t34 - 10 t35 - 10 t36 - 10 t37 - 10 t38 - 10 t39 - 10 t40
      - 10 t41 - 10 t42 - 10 t43 - 10 t44 - 20 t45 - 20 t46 - 20 t47 - 20 t48
      - 20 t49 - 20 t50 - 20 t51 - 20 t52 - 20 t53 - 20 t54 - 20 t55 - 20 t56
      - 20 t57 - 20 t58 - 20 t59 - 20 t60 - 20 t61 - 20 t62 - 20 t63 - 20 t64
      - 20 t65 - 20 t66 - 20 t67 - 20 t68 - 20 t69 - 20 t70 - 20 t71 - 20 t72
      - 20 t73 - 20 t74 - 20 t75 - 20 t76 - 20 t77 - 20 t78 - 20 t79 - 20 t80
      - 20 t81 - 20 t82 - 20 t83 - 20 t84 - 20 t85 - 20 t86 - 20 t87 - 20 t88
      - 20 t89 + 30 t90 + 30 t91 + 30 t92 + 30 t93 + 30 t94 + 30 t95 + 30 t96
      + 30 t97 + 30 t98 + 30 t99 + 30 t100 + 30 t101 + 30 t102 + 30 t103
      + 30 t104 + 30 t105 + 30 t106 + 30 t107 + 30 t108 + 30 t109 + 30 t110
      + 30 t111 + 30 t112 + 30 t113 + 30 t114 + 30 t115 + 30 t116 + 30 t117
      + 30 t118 + 30 t119 + 30 t120 + 30 t121 + 30 t122 + 30 t123 + 30 t124
      + 30 t125 + 30 t126 + 30 t127 + 30 t128 + 30 t129 + 30 t130 + 30 t131
      + 30 t132 + 30 t133 + 30 t134 + 10 t135 + 10 t136 + 10 t137 + 10 t138
      + 10 t139 + 10 t140 + 10 t141 + 10 t142 + 10 t143 + 10 t144 + 10 t145
      + 10 t146 + 10 t147 + 10 t148 + 10 t149 + 110 t150 + 110 t151 + 110 t152
      + 110 t153 + 110 t154 + 110 t155 + 110 t156 + 110 t157 + 110 t158
      + 110 t159 + 110 t160 + 110 t161 + 110 t162 + 110 t163 + 110 t164
Subject To
 c0:   t45 - t46 <= -44
 c1:   t0 - t16 <= -49
 c2:   t1 - t2 <= -42
 c3:   t46 - t47 <= -37
 c4:   t2 - t3 <= -48
 c5:   t47 - t48 <= -41
 c6:   t3 - t4 <= -50
 c7:   t48 - t49 <= -42
 c8:   t4 - t5 <= -42
 c9:   t49 - t50 <= -41
 c10:  t5 - t6 <= -36
 c11:  t50 - t51 <= -45
 c12:  t6 - t7 <= -40
 c13:  t51 - t52 <= -46
 c14:  t7 - t8 <= -44
 c15:  t52 - t53 <= -50
 c16:  t8 - t9 <= -43
 c17:  t53 - t69 <= -39
 c18:  t54 - t55 <= -44
 c19:  t9 - t25 <= -42
 c20:  t10 - t26 <= -50
 c21:  t55 - t71 <= -43
 c22:  t11 - t27 <= -48
 c23:  t56 - t72 <= -43
 c24:  t12 - t28 <= -49
 c25:  t57 - t73 <= -49
 c26:  t13 - t14 <= -40
 c27:  t58 - t59 <= -44
 c28:  t60 - t61 <= -36
 c29:  t15 - t31 <= -41
 c30:  t16 - t17 <= -45
 c31:  t61 - t62 <= -48
 c32:  t17 - t33 <= -50
 c33:  t62 - t78 <= -50
 c34:  t18 - t19 <= -50
 c35:  t63 - t64 <= -44
 c36:  t19 - t35 <= -39
 c37:  t64 - t80 <= -50
 c38:  t20 - t21 <= -44
 c39:  t65 - t66 <= -36
 c40:  t21 - t22 <= -38
 c41:  t66 - t67 <= -37
 c42:  t22 - t23 <= -40
 c43:  t67 - t68 <= -47
 c44:  t23 - t39 <= -38
 c45:  t68 - t84 <= -49
 c46:  - t10 + t24 <= -48
 c47:  t69 - t70 <= -42
 c48:  - t11 + t25 <= -37
 c49:  - t56 + t70 <= -47
 c50:  - t12 + t26 <= -45
 c51:  - t57 + t71 <= -49
 c52:  - t13 + t27 <= -48
 c53:  - t58 + t72 <= -48
 c54:  t28 - t29 <= -40
 c55:  t73 - t74 <= -46
 c56:  - t1 + t30 <= -44
 c57:  t75 - t76 <= -36
 c58:  t31 - t32 <= -47
 c59:  t76 - t77 <= -45
 c60:  - t18 + t32 <= -48
 c61:  - t63 + t77 <= -43
 c62:  t33 - t34 <= -45
 c63:  t78 - t79 <= -49
 c64:  - t20 + t34 <= -50
 c65:  - t65 + t79 <= -49
 c66:  t35 - t36 <= -38
 c67:  t80 - t81 <= -41
 c68:  t36 - t37 <= -40
 c69:  t81 - t82 <= -39
 c70:  t37 - t38 <= -37
 c71:  t82 - t83 <= -47
 c72:  - t54 + t83 <= -41
 c73:  - t24 + t38 <= -47
 c74:  t39 - t40 <= -37
 c75:  t84 - t85 <= -47
 c76:  t40 - t41 <= -50
 c77:  t85 - t86 <= -49
 c78:  t41 - t42 <= -49
 c79:  t86 - t87 <= -37
 c80:  t42 - t43 <= -46
 c81:  t87 - t88 <= -39
 c82:  t43 - t44 <= -41
 c83:  t88 - t89 <= -50
 c84:  t0 - t45 <= -54
 c85:  t1 - t46 <= -47
 c86:  t2 - t47 <= -53
 c87:  t3 - t48 <= -55
 c88:  t4 - t49 <= -47
 c89:  t5 - t50 <= -41
 c90:  t6 - t51 <= -45
 c91:  t7 - t52 <= -49
 c92:  t8 - t53 <= -48
 c93:  t9 - t54 <= -47
 c94:  t10 - t55 <= -55
 c95:  t11 - t56 <= -53
 c96:  t12 - t57 <= -54
 c97:  t13 - t58 <= -45
 c98:  t14 - t59 <= -48
 c99:  t15 - t60 <= -46
 c100: t16 - t61 <= -50
 c101: t17 - t62 <= -55
 c102: t18 - t63 <= -55
 c103: t19 - t64 <= -44
 c104: t20 - t65 <= -49
 c105: t21 - t66 <= -43
 c106: t22 - t67 <= -45
 c107: t23 - t68 <= -43
 c108: t24 - t69 <= -53
 c109: t25 - t70 <= -42
 c110: t26 - t71 <= -50
 c111: t27 - t72 <= -53
 c112: t28 - t73 <= -45
 c113: t29 - t74 <= -55
 c114: t30 - t75 <= -49
 c115: t31 - t76 <= -52
 c116: t32 - t77 <= -53
 c117: t33 - t78 <= -50
 c118: t34 - t79 <= -55
 c119: t35 - t80 <= -43
 c120: t36 - t81 <= -45
 c121: t37 - t82 <= -42
 c122: t38 - t83 <= -52
 c123: t39 - t84 <= -42
 c124: t40 - t85 <= -55
 c125: t41 - t86 <= -54
 c126: t42 - t87 <= -51
 c127: t43 - t88 <= -46
 c128: t44 - t89 <= -48
 c129: t45 - t90 <= -50
 c130: t46 - t91 <= -43
 c131: t47 - t92 <= -47
 c132: t48 - t93 <= -48
 c133: t49 - t94 <= -47
 c134: t50 - t95 <= -51
 c135: t51 - t96 <= -52
 c136: t52 - t97 <= -56
 c137: t53 - t98 <= -45
 c138: t54 - t99 <= -50
 c139: t55 - t100 <= -49
 c140: t56 - t101 <= -49
 c141: t57 - t102 <= -55
 c142: t58 - t103 <= -50
 c143: t59 - t104 <= -46
 c144: t60 - t105 <= -42
 c145: t61 - t106 <= -54
 c146: t62 - t107 <= -56
 c147: t63 - t108 <= -50
 c148: t64 - t109 <= -56
 c149: t65 - t110 <= -42
 c150: t66 - t111 <= -43
 c151: t67 - t112 <= -53
 c152: t68 - t113 <= -55
 c153: t69 - t114 <= -48
 c154: t70 - t115 <= -53
 c155: t71 - t116 <= -55
 c156: t72 - t117 <= -54
 c157: t73 - t118 <= -52
 c158: t74 - t119 <= -52
 c159: t75 - t120 <= -42
 c160: t76 - t121 <= -51
 c161: t77 - t122 <= -49
 c162: t78 - t123 <= -55
 c163: t79 - t124 <= -55
 c164: t80 - t125 <= -47
 c165: t81 - t126 <= -45
 c166: t82 - t127 <= -53
 c167: t83 - t128 <= -47
 c168: t84 - t129 <= -53
 c169: t85 - t130 <= -55
 c170: t86 - t131 <= -43
 c171: t87 - t132 <= -45
 c172: t88 - t133 <= -56
 c173: t89 - t134 <= -51
 c174: t90 - t91  = -39
 c175: t91 - t92  = -39
 c176: t93 - t94  = -38
 c177: t94 - t95  = -48
 c178: t96 - t97  = -43
 c179: t97 - t98  = -37
 c180: t99 - t100  = -41
 c181: t100 - t101  = -50
 c182: t102 - t103  = -50
 c183: t103 - t104  = -43
 c184: t105 - t106  = -40
 c185: t106 - t107  = -44
 c186: t108 - t109  = -47
 c187: t109 - t110  = -37
 c188: t111 - t112  = -41
 c189: t112 - t113  = -49
 c190: t114 - t115  = -44
 c191: t115 - t116  = -39
 c192: t117 - t118  = -45
 c193: t118 - t119  = -44
 c194: t120 - t121  = -40
 c195: t121 - t122  = -43
 c196: t123 - t124  = -45
 c197: t124 - t125  = -48
 c198: t126 - t127  = -41
 c199: t127 - t128  = -45
 c200: t129 - t130  = -40
 c201: t130 - t131  = -38
 c202: t132 - t133  = -49
 c203: t133 - t134  = -38
 c204: t92 - t93 <= -128
 c205: t95 - t96 <= -124
 c206: t98 - t99 <= -117
 c207: t101 - t102 <= -124
 c208: t107 - t108 <= -120
 c209: t110 - t111 <= -124
 c210: t113 - t114 <= -130
 c211: t116 - t117 <= -128
 c212: t122 - t123 <= -117
 c213: t125 - t126 <= -122
 c214: t128 - t129 <= -119
 c215: t131 - t132 <= -119
 c216: t90 - t135 + t150  = 104
 c217: t93 - t136 + t151  = 310
 c218: t96 - t137 + t152  = 520
 c219: t99 - t138 + t153  = 717
 c220: t102 - t139 + t154  = 932
 c221: t105 - t140 + t155  = 88
 c222: t108 - t141 + t156  = 292
 c223: t111 - t142 + t157  = 500
 c224: t114 - t143 + t158  = 720
 c225: t117 - t144 + t159  = 931
 c226: t120 - t145 + t160  = 91
 c227: t123 - t146 + t161  = 291
 c228: t126 - t147 + t162  = 506
 c229: t129 - t148 + t163  = 711
 c230: t132 - t149 + t164  = 908
End
