scr/list_schedule.txt
[0.0, 44.0, 86.0, 208.0, 258.0, 308.0, 418.0, 460.0, 511.0, 647.0, 681.0, 735.0, 852.0, 916.0, 960.0, 0.0, 49.0, 94.0, 217.0, 272.0, 318.0, 438.0, 476.0, 525.0, 633.0, 698.0, 731.0, 857.0, 906.0, 946.0, 0.0, 41.0, 88.0, 210.0, 255.0, 323.0, 439.0, 481.0, 522.0, 633.0, 670.0, 721.0, 831.0, 877.0, 925.0]
[58.0, 102.0, 139.0, 263.0, 305.0, 349.0, 463.0, 509.0, 559.0, 694.0, 738.0, 788.0, 906.0, 961.0, 1008.0, 65.0, 101.0, 149.0, 272.0, 316.0, 367.0, 484.0, 521.0, 568.0, 699.0, 741.0, 781.0, 910.0, 955.0, 1001.0, 60.0, 96.0, 141.0, 261.0, 310.0, 366.0, 484.0, 523.0, 574.0, 678.0, 725.0, 775.0, 884.0, 923.0, 973.0]
[108.0, 147.0, 186.0, 314.0, 352.0, 400.0, 524.0, 567.0, 604.0, 746.0, 787.0, 837.0, 961.0, 1011.0, 1054.0, 121.0, 161.0, 205.0, 325.0, 372.0, 409.0, 533.0, 574.0, 623.0, 753.0, 797.0, 836.0, 964.0, 1009.0, 1053.0, 107.0, 147.0, 190.0, 320.0, 365.0, 413.0, 535.0, 576.0, 621.0, 740.0, 780.0, 818.0, 937.0, 986.0, 1024.0]
[4.0, 4.0, 4.0, 29.0, 29.0, 33.0, 33.0, 33.0, 33.0, 33.0, 16.0, 29.0, 29.0, 29.0, 29.0, 0.0, 0.0, 0.0, 0.0, 0.0, 0.0, 0.0, 0.0, 0.0, 0.0, 0.0, 0.0, 0.0, 0.0, 0.0]
[]
[]
[]
[]
[]
[]
[]
[]
[]
[]
[]
[]
[]
[]
[]
[]
[]
[]
[]
[]
[]
[]
[]
[]
[]
[]
[]
[]
[]
[]
[]
[]
[]
[]
[]
[]
[]
[]
[]
[]
[]
